p cnf 430 1488
-191 -76 0
-191 74 0
-191 -8 0
-191 -55 0
-191 -79 0
191 76 -74 8 55 79 0
-192 -175 0
-192 -14 0
-192 63 0
-192 36 0
-192 -186 0
192 175 14 -63 -36 186 0
-193 -106 0
-193 -115 0
-193 -79 0
-193 69 0
-193 -90 0
193 106 115 79 -69 90 0
-194 -127 0
-194 -178 0
-194 179 0
-194 -101 0
-194 -190 0
194 127 178 -179 101 190 0
-195 -137 0
-195 -115 0
-195 -48 0
-195 116 0
-195 -122 0
195 137 115 48 -116 122 0
191 192 193 194 195 0
-196 10 0
-196 68 0
-196 79 0
-196 184 0
-196 -77 0
196 -10 -68 -79 -184 77 0
-197 48 0
-197 51 0
-197 -58 0
-197 135 0
-197 140 0
197 -48 -51 58 -135 -140 0
-198 69 0
-198 137 0
-198 -159 0
-198 -183 0
-198 -39 0
198 -69 -137 159 183 39 0
-199 -82 0
-199 -10 0
-199 -101 0
-199 134 0
-199 104 0
199 82 10 101 -134 -104 0
-200 -161 0
-200 160 0
-200 101 0
-200 -134 0
-200 -170 0
200 161 -160 -101 134 170 0
196 197 198 199 200 0
-201 133 0
-201 -116 0
-201 -100 0
-201 -135 0
-201 86 0
201 -133 116 100 135 -86 0
-202 41 0
-202 57 0
-202 8 0
-202 -115 0
-202 88 0
202 -41 -57 -8 115 -88 0
-203 -75 0
-203 -67 0
-203 -58 0
-203 -31 0
-203 84 0
203 75 67 58 31 -84 0
-204 -176 0
-204 -22 0
-204 36 0
-204 -10 0
-204 -17 0
204 176 22 -36 10 17 0
-205 188 0
-205 -32 0
-205 -14 0
-205 26 0
-205 82 0
205 -188 32 14 -26 -82 0
201 202 203 204 205 0
-206 -9 0
-206 142 0
-206 -185 0
-206 -71 0
-206 105 0
206 9 -142 185 71 -105 0
-207 137 0
-207 86 0
-207 187 0
-207 -84 0
-207 96 0
207 -137 -86 -187 84 -96 0
-208 115 0
-208 177 0
-208 -137 0
-208 -100 0
-208 8 0
208 -115 -177 137 100 -8 0
-209 -140 0
-209 -186 0
-209 -136 0
-209 -65 0
-209 -127 0
209 140 186 136 65 127 0
-210 45 0
-210 -36 0
-210 -143 0
-210 -2 0
-210 1 0
210 -45 36 143 2 -1 0
206 207 208 209 210 0
-211 -185 0
-211 -61 0
-211 83 0
-211 16 0
-211 -190 0
211 185 61 -83 -16 190 0
-212 -160 0
-212 -50 0
-212 177 0
-212 5 0
-212 75 0
212 160 50 -177 -5 -75 0
-213 -68 0
-213 -133 0
-213 182 0
-213 -87 0
-213 74 0
213 68 133 -182 87 -74 0
-214 110 0
-214 74 0
-214 -66 0
-214 -90 0
-214 -154 0
214 -110 -74 66 90 154 0
-215 -34 0
-215 107 0
-215 108 0
-215 -163 0
-215 27 0
215 34 -107 -108 163 -27 0
211 212 213 214 215 0
-216 -178 0
-216 -3 0
-216 -171 0
-216 162 0
-216 77 0
216 178 3 171 -162 -77 0
-217 -2 0
-217 65 0
-217 89 0
-217 -149 0
-217 -26 0
217 2 -65 -89 149 26 0
-218 150 0
-218 21 0
-218 -36 0
-218 -189 0
-218 115 0
218 -150 -21 36 189 -115 0
-219 -76 0
-219 -45 0
-219 -39 0
-219 -6 0
-219 23 0
219 76 45 39 6 -23 0
-220 -132 0
-220 27 0
-220 3 0
-220 117 0
-220 -92 0
220 132 -27 -3 -117 92 0
216 217 218 219 220 0
-221 93 0
-221 -57 0
-221 110 0
-221 -186 0
-221 10 0
221 -93 57 -110 186 -10 0
-222 81 0
-222 88 0
-222 41 0
-222 79 0
-222 176 0
222 -81 -88 -41 -79 -176 0
-223 -79 0
-223 99 0
-223 -150 0
-223 -3 0
-223 -144 0
223 79 -99 150 3 144 0
-224 137 0
-224 -72 0
-224 36 0
-224 188 0
-224 30 0
224 -137 72 -36 -188 -30 0
-225 -27 0
-225 -186 0
-225 -64 0
-225 -14 0
-225 -121 0
225 27 186 64 14 121 0
221 222 223 224 225 0
-226 10 0
-226 190 0
-226 -38 0
-226 12 0
-226 -15 0
226 -10 -190 38 -12 15 0
-227 -8 0
-227 15 0
-227 110 0
-227 -42 0
-227 128 0
227 8 -15 -110 42 -128 0
-228 91 0
-228 172 0
-228 -131 0
-228 141 0
-228 16 0
228 -91 -172 131 -141 -16 0
-229 -108 0
-229 154 0
-229 115 0
-229 -1 0
-229 -92 0
229 108 -154 -115 1 92 0
-230 -145 0
-230 -134 0
-230 -115 0
-230 -55 0
-230 -22 0
230 145 134 115 55 22 0
226 227 228 229 230 0
-231 47 0
-231 -66 0
-231 -102 0
-231 -113 0
-231 -50 0
231 -47 66 102 113 50 0
-232 -4 0
-232 -9 0
-232 -101 0
-232 -26 0
-232 16 0
232 4 9 101 26 -16 0
-233 -6 0
-233 138 0
-233 -48 0
-233 -133 0
-233 22 0
233 6 -138 48 133 -22 0
-234 -162 0
-234 107 0
-234 -61 0
-234 141 0
-234 60 0
234 162 -107 61 -141 -60 0
-235 75 0
-235 -174 0
-235 2 0
-235 160 0
-235 -96 0
235 -75 174 -2 -160 96 0
231 232 233 234 235 0
-236 18 0
-236 72 0
-236 -61 0
-236 -161 0
-236 178 0
236 -18 -72 61 161 -178 0
-237 107 0
-237 30 0
-237 -41 0
-237 -165 0
-237 160 0
237 -107 -30 41 165 -160 0
-238 170 0
-238 -81 0
-238 53 0
-238 -43 0
-238 -122 0
238 -170 81 -53 43 122 0
-239 -126 0
-239 -96 0
-239 26 0
-239 -62 0
-239 45 0
239 126 96 -26 62 -45 0
-240 10 0
-240 -55 0
-240 -52 0
-240 -37 0
-240 119 0
240 -10 55 52 37 -119 0
236 237 238 239 240 0
-241 143 0
-241 -59 0
-241 125 0
-241 27 0
-241 15 0
241 -143 59 -125 -27 -15 0
-242 -57 0
-242 -96 0
-242 108 0
-242 22 0
-242 -38 0
242 57 96 -108 -22 38 0
-243 132 0
-243 170 0
-243 3 0
-243 -49 0
-243 -91 0
243 -132 -170 -3 49 91 0
-244 29 0
-244 -32 0
-244 51 0
-244 -105 0
-244 65 0
244 -29 32 -51 105 -65 0
-245 91 0
-245 96 0
-245 -145 0
-245 90 0
-245 -38 0
245 -91 -96 145 -90 38 0
241 242 243 244 245 0
-246 31 0
-246 140 0
-246 46 0
-246 -79 0
-246 -49 0
246 -31 -140 -46 79 49 0
-247 139 0
-247 -152 0
-247 -150 0
-247 176 0
-247 66 0
247 -139 152 150 -176 -66 0
-248 -40 0
-248 -45 0
-248 5 0
-248 143 0
-248 -97 0
248 40 45 -5 -143 97 0
-249 -87 0
-249 -71 0
-249 62 0
-249 -160 0
-249 -68 0
249 87 71 -62 160 68 0
-250 -118 0
-250 11 0
-250 74 0
-250 -91 0
-250 -86 0
250 118 -11 -74 91 86 0
246 247 248 249 250 0
-251 126 0
-251 -39 0
-251 22 0
-251 -58 0
-251 -190 0
251 -126 39 -22 58 190 0
-252 62 0
-252 -87 0
-252 -174 0
-252 58 0
-252 -152 0
252 -62 87 174 -58 152 0
-253 67 0
-253 -34 0
-253 -35 0
-253 45 0
-253 -108 0
253 -67 34 35 -45 108 0
-254 126 0
-254 12 0
-254 -16 0
-254 -96 0
-254 41 0
254 -126 -12 16 96 -41 0
-255 104 0
-255 -20 0
-255 -170 0
-255 62 0
-255 -57 0
255 -104 20 170 -62 57 0
251 252 253 254 255 0
-256 -174 0
-256 110 0
-256 -151 0
-256 -131 0
-256 -3 0
256 174 -110 151 131 3 0
-257 133 0
-257 -57 0
-257 -176 0
-257 -122 0
-257 81 0
257 -133 57 176 122 -81 0
-258 30 0
-258 153 0
-258 -8 0
-258 87 0
-258 42 0
258 -30 -153 8 -87 -42 0
-259 -40 0
-259 159 0
-259 185 0
-259 157 0
-259 -60 0
259 40 -159 -185 -157 60 0
-260 86 0
-260 140 0
-260 -119 0
-260 -127 0
-260 -34 0
260 -86 -140 119 127 34 0
256 257 258 259 260 0
-261 164 0
-261 83 0
-261 -44 0
-261 56 0
-261 68 0
261 -164 -83 44 -56 -68 0
-262 -51 0
-262 75 0
-262 139 0
-262 -170 0
-262 49 0
262 51 -75 -139 170 -49 0
-263 -125 0
-263 -129 0
-263 177 0
-263 115 0
-263 -108 0
263 125 129 -177 -115 108 0
-264 4 0
-264 -81 0
-264 -179 0
-264 -80 0
-264 -155 0
264 -4 81 179 80 155 0
-265 -101 0
-265 -188 0
-265 -113 0
-265 -134 0
-265 94 0
265 101 188 113 134 -94 0
261 262 263 264 265 0
-266 10 0
-266 -49 0
-266 114 0
-266 -59 0
-266 89 0
266 -10 49 -114 59 -89 0
-267 -53 0
-267 178 0
-267 90 0
-267 -66 0
-267 -127 0
267 53 -178 -90 66 127 0
-268 101 0
-268 -181 0
-268 86 0
-268 -185 0
-268 30 0
268 -101 181 -86 185 -30 0
-269 6 0
-269 87 0
-269 157 0
-269 -66 0
-269 10 0
269 -6 -87 -157 66 -10 0
-270 -156 0
-270 -135 0
-270 2 0
-270 -106 0
-270 -132 0
270 156 135 -2 106 132 0
266 267 268 269 270 0
-271 -82 0
-271 104 0
-271 62 0
-271 -180 0
-271 -77 0
271 82 -104 -62 180 77 0
-272 153 0
-272 92 0
-272 2 0
-272 158 0
-272 -175 0
272 -153 -92 -2 -158 175 0
-273 190 0
-273 -25 0
-273 -27 0
-273 -62 0
-273 -9 0
273 -190 25 27 62 9 0
-274 -84 0
-274 -62 0
-274 178 0
-274 92 0
-274 23 0
274 84 62 -178 -92 -23 0
-275 144 0
-275 -36 0
-275 -114 0
-275 -130 0
-275 -82 0
275 -144 36 114 130 82 0
271 272 273 274 275 0
-276 73 0
-276 133 0
-276 -41 0
-276 -148 0
-276 96 0
276 -73 -133 41 148 -96 0
-277 -127 0
-277 103 0
-277 13 0
-277 15 0
-277 89 0
277 127 -103 -13 -15 -89 0
-278 139 0
-278 115 0
-278 16 0
-278 -66 0
-278 51 0
278 -139 -115 -16 66 -51 0
-279 -154 0
-279 61 0
-279 121 0
-279 -175 0
-279 -84 0
279 154 -61 -121 175 84 0
-280 -33 0
-280 39 0
-280 -121 0
-280 100 0
-280 -190 0
280 33 -39 121 -100 190 0
276 277 278 279 280 0
-281 -66 0
-281 157 0
-281 -1 0
-281 -175 0
-281 53 0
281 66 -157 1 175 -53 0
-282 -179 0
-282 -81 0
-282 -93 0
-282 171 0
-282 -85 0
282 179 81 93 -171 85 0
-283 49 0
-283 -23 0
-283 97 0
-283 84 0
-283 -24 0
283 -49 23 -97 -84 24 0
-284 55 0
-284 -137 0
-284 -190 0
-284 -178 0
-284 -144 0
284 -55 137 190 178 144 0
-285 51 0
-285 122 0
-285 93 0
-285 -95 0
-285 -120 0
285 -51 -122 -93 95 120 0
281 282 283 284 285 0
-286 -60 0
-286 3 0
-286 -106 0
-286 161 0
-286 174 0
286 60 -3 106 -161 -174 0
-287 -78 0
-287 13 0
-287 180 0
-287 110 0
-287 177 0
287 78 -13 -180 -110 -177 0
-288 -16 0
-288 138 0
-288 -174 0
-288 -190 0
-288 171 0
288 16 -138 174 190 -171 0
-289 -172 0
-289 176 0
-289 81 0
-289 89 0
-289 99 0
289 172 -176 -81 -89 -99 0
-290 -178 0
-290 -179 0
-290 185 0
-290 -130 0
-290 88 0
290 178 179 -185 130 -88 0
286 287 288 289 290 0
-291 5 0
-291 -57 0
-291 -15 0
-291 -138 0
-291 -93 0
291 -5 57 15 138 93 0
-292 123 0
-292 153 0
-292 149 0
-292 19 0
-292 7 0
292 -123 -153 -149 -19 -7 0
-293 111 0
-293 -189 0
-293 -161 0
-293 -132 0
-293 -177 0
293 -111 189 161 132 177 0
-294 -150 0
-294 -30 0
-294 -92 0
-294 -70 0
-294 -142 0
294 150 30 92 70 142 0
-295 -60 0
-295 97 0
-295 -1 0
-295 -75 0
-295 -79 0
295 60 -97 1 75 79 0
291 292 293 294 295 0
-296 -146 0
-296 132 0
-296 -21 0
-296 136 0
-296 117 0
296 146 -132 21 -136 -117 0
-297 -16 0
-297 -150 0
-297 -99 0
-297 -159 0
-297 -185 0
297 16 150 99 159 185 0
-298 9 0
-298 -23 0
-298 77 0
-298 -108 0
-298 57 0
298 -9 23 -77 108 -57 0
-299 130 0
-299 -33 0
-299 61 0
-299 -134 0
-299 -123 0
299 -130 33 -61 134 123 0
-300 64 0
-300 77 0
-300 -105 0
-300 -55 0
-300 -71 0
300 -64 -77 105 55 71 0
296 297 298 299 300 0
-301 8 0
-301 52 0
-301 156 0
-301 -130 0
-301 29 0
301 -8 -52 -156 130 -29 0
-302 -21 0
-302 119 0
-302 -98 0
-302 116 0
-302 -107 0
302 21 -119 98 -116 107 0
-303 -33 0
-303 100 0
-303 -82 0
-303 162 0
-303 78 0
303 33 -100 82 -162 -78 0
-304 -75 0
-304 14 0
-304 46 0
-304 -181 0
-304 -142 0
304 75 -14 -46 181 142 0
-305 102 0
-305 175 0
-305 103 0
-305 -31 0
-305 151 0
305 -102 -175 -103 31 -151 0
301 302 303 304 305 0
-306 -173 0
-306 -141 0
-306 81 0
-306 -31 0
-306 65 0
306 173 141 -81 31 -65 0
-307 110 0
-307 25 0
-307 57 0
-307 176 0
-307 87 0
307 -110 -25 -57 -176 -87 0
-308 16 0
-308 -111 0
-308 -34 0
-308 152 0
-308 85 0
308 -16 111 34 -152 -85 0
-309 -63 0
-309 40 0
-309 55 0
-309 118 0
-309 160 0
309 63 -40 -55 -118 -160 0
-310 -186 0
-310 1 0
-310 93 0
-310 120 0
-310 41 0
310 186 -1 -93 -120 -41 0
306 307 308 309 310 0
-311 -53 0
-311 133 0
-311 132 0
-311 63 0
-311 110 0
311 53 -133 -132 -63 -110 0
-312 -39 0
-312 38 0
-312 113 0
-312 33 0
-312 -76 0
312 39 -38 -113 -33 76 0
-313 -25 0
-313 73 0
-313 121 0
-313 -9 0
-313 -153 0
313 25 -73 -121 9 153 0
-314 122 0
-314 118 0
-314 92 0
-314 97 0
-314 -55 0
314 -122 -118 -92 -97 55 0
-315 -122 0
-315 4 0
-315 -175 0
-315 -138 0
-315 82 0
315 122 -4 175 138 -82 0
311 312 313 314 315 0
-316 -12 0
-316 154 0
-316 -116 0
-316 163 0
-316 -7 0
316 12 -154 116 -163 7 0
-317 -158 0
-317 122 0
-317 -133 0
-317 -183 0
-317 9 0
317 158 -122 133 183 -9 0
-318 -131 0
-318 186 0
-318 46 0
-318 -33 0
-318 -13 0
318 131 -186 -46 33 13 0
-319 -7 0
-319 -155 0
-319 144 0
-319 -11 0
-319 60 0
319 7 155 -144 11 -60 0
-320 7 0
-320 40 0
-320 62 0
-320 -136 0
-320 42 0
320 -7 -40 -62 136 -42 0
316 317 318 319 320 0
-321 116 0
-321 105 0
-321 162 0
-321 49 0
-321 -150 0
321 -116 -105 -162 -49 150 0
-322 -57 0
-322 -93 0
-322 -50 0
-322 22 0
-322 -69 0
322 57 93 50 -22 69 0
-323 -110 0
-323 77 0
-323 72 0
-323 79 0
-323 85 0
323 110 -77 -72 -79 -85 0
-324 -18 0
-324 103 0
-324 -190 0
-324 -121 0
-324 55 0
324 18 -103 190 121 -55 0
-325 71 0
-325 -108 0
-325 169 0
-325 129 0
-325 -46 0
325 -71 108 -169 -129 46 0
321 322 323 324 325 0
-326 54 0
-326 -121 0
-326 3 0
-326 76 0
-326 126 0
326 -54 121 -3 -76 -126 0
-327 -40 0
-327 78 0
-327 -171 0
-327 10 0
-327 -114 0
327 40 -78 171 -10 114 0
-328 13 0
-328 65 0
-328 -98 0
-328 82 0
-328 40 0
328 -13 -65 98 -82 -40 0
-329 -6 0
-329 -144 0
-329 -9 0
-329 -105 0
-329 -51 0
329 6 144 9 105 51 0
-330 120 0
-330 53 0
-330 109 0
-330 159 0
-330 -112 0
330 -120 -53 -109 -159 112 0
326 327 328 329 330 0
-331 41 0
-331 -144 0
-331 36 0
-331 -137 0
-331 21 0
331 -41 144 -36 137 -21 0
-332 111 0
-332 66 0
-332 101 0
-332 76 0
-332 30 0
332 -111 -66 -101 -76 -30 0
-333 -183 0
-333 43 0
-333 -24 0
-333 -90 0
-333 114 0
333 183 -43 24 90 -114 0
-334 112 0
-334 -26 0
-334 -148 0
-334 -143 0
-334 -31 0
334 -112 26 148 143 31 0
-335 20 0
-335 162 0
-335 -42 0
-335 188 0
-335 13 0
335 -20 -162 42 -188 -13 0
331 332 333 334 335 0
-336 -79 0
-336 49 0
-336 -91 0
-336 -152 0
-336 -108 0
336 79 -49 91 152 108 0
-337 182 0
-337 15 0
-337 22 0
-337 75 0
-337 -37 0
337 -182 -15 -22 -75 37 0
-338 176 0
-338 -46 0
-338 75 0
-338 116 0
-338 -134 0
338 -176 46 -75 -116 134 0
-339 43 0
-339 -98 0
-339 172 0
-339 -106 0
-339 48 0
339 -43 98 -172 106 -48 0
-340 -25 0
-340 -143 0
-340 37 0
-340 -38 0
-340 71 0
340 25 143 -37 38 -71 0
336 337 338 339 340 0
-341 167 0
-341 -88 0
-341 -21 0
-341 -166 0
-341 -92 0
341 -167 88 21 166 92 0
-342 -17 0
-342 169 0
-342 -139 0
-342 27 0
-342 -118 0
342 17 -169 139 -27 118 0
-343 38 0
-343 -131 0
-343 160 0
-343 -159 0
-343 18 0
343 -38 131 -160 159 -18 0
-344 96 0
-344 -37 0
-344 -157 0
-344 72 0
-344 -126 0
344 -96 37 157 -72 126 0
-345 -97 0
-345 187 0
-345 71 0
-345 12 0
-345 96 0
345 97 -187 -71 -12 -96 0
341 342 343 344 345 0
-346 124 0
-346 -157 0
-346 177 0
-346 -141 0
-346 107 0
346 -124 157 -177 141 -107 0
-347 41 0
-347 178 0
-347 -73 0
-347 84 0
-347 -176 0
347 -41 -178 73 -84 176 0
-348 -95 0
-348 34 0
-348 115 0
-348 -42 0
-348 11 0
348 95 -34 -115 42 -11 0
-349 -175 0
-349 -146 0
-349 -177 0
-349 -7 0
-349 121 0
349 175 146 177 7 -121 0
-350 28 0
-350 32 0
-350 134 0
-350 50 0
-350 -170 0
350 -28 -32 -134 -50 170 0
346 347 348 349 350 0
-351 69 0
-351 -18 0
-351 115 0
-351 46 0
-351 -176 0
351 -69 18 -115 -46 176 0
-352 167 0
-352 -190 0
-352 89 0
-352 -147 0
-352 -95 0
352 -167 190 -89 147 95 0
-353 60 0
-353 -188 0
-353 -86 0
-353 190 0
-353 119 0
353 -60 188 86 -190 -119 0
-354 -4 0
-354 72 0
-354 -35 0
-354 -26 0
-354 -24 0
354 4 -72 35 26 24 0
-355 -138 0
-355 7 0
-355 59 0
-355 -78 0
-355 162 0
355 138 -7 -59 78 -162 0
351 352 353 354 355 0
-356 63 0
-356 81 0
-356 -166 0
-356 118 0
-356 157 0
356 -63 -81 166 -118 -157 0
-357 -190 0
-357 23 0
-357 -159 0
-357 182 0
-357 154 0
357 190 -23 159 -182 -154 0
-358 144 0
-358 6 0
-358 186 0
-358 -2 0
-358 -53 0
358 -144 -6 -186 2 53 0
-359 -77 0
-359 -4 0
-359 132 0
-359 -87 0
-359 -93 0
359 77 4 -132 87 93 0
-360 -138 0
-360 144 0
-360 41 0
-360 156 0
-360 -151 0
360 138 -144 -41 -156 151 0
356 357 358 359 360 0
-361 -27 0
-361 125 0
-361 -48 0
-361 -42 0
-361 -172 0
361 27 -125 48 42 172 0
-362 48 0
-362 103 0
-362 85 0
-362 17 0
-362 29 0
362 -48 -103 -85 -17 -29 0
-363 -135 0
-363 -75 0
-363 10 0
-363 -65 0
-363 159 0
363 135 75 -10 65 -159 0
-364 -138 0
-364 -137 0
-364 144 0
-364 2 0
-364 150 0
364 138 137 -144 -2 -150 0
-365 -90 0
-365 117 0
-365 -40 0
-365 96 0
-365 146 0
365 90 -117 40 -96 -146 0
361 362 363 364 365 0
-366 30 0
-366 -63 0
-366 97 0
-366 44 0
-366 54 0
366 -30 63 -97 -44 -54 0
-367 165 0
-367 107 0
-367 161 0
-367 -186 0
-367 153 0
367 -165 -107 -161 186 -153 0
-368 18 0
-368 169 0
-368 -5 0
-368 176 0
-368 95 0
368 -18 -169 5 -176 -95 0
-369 47 0
-369 17 0
-369 91 0
-369 -131 0
-369 54 0
369 -47 -17 -91 131 -54 0
-370 -132 0
-370 -149 0
-370 -135 0
-370 -189 0
-370 -67 0
370 132 149 135 189 67 0
366 367 368 369 370 0
-371 -39 0
-371 -146 0
-371 101 0
-371 -120 0
-371 96 0
371 39 146 -101 120 -96 0
-372 57 0
-372 -53 0
-372 -126 0
-372 9 0
-372 -26 0
372 -57 53 126 -9 26 0
-373 129 0
-373 -122 0
-373 42 0
-373 74 0
-373 -46 0
373 -129 122 -42 -74 46 0
-374 -19 0
-374 -69 0
-374 -55 0
-374 -140 0
-374 -189 0
374 19 69 55 140 189 0
-375 11 0
-375 -131 0
-375 -180 0
-375 -146 0
-375 -182 0
375 -11 131 180 146 182 0
371 372 373 374 375 0
-376 125 0
-376 108 0
-376 -102 0
-376 33 0
-376 -50 0
376 -125 -108 102 -33 50 0
-377 17 0
-377 77 0
-377 -54 0
-377 180 0
-377 -71 0
377 -17 -77 54 -180 71 0
-378 -106 0
-378 116 0
-378 119 0
-378 -181 0
-378 -87 0
378 106 -116 -119 181 87 0
-379 8 0
-379 54 0
-379 2 0
-379 -26 0
-379 12 0
379 -8 -54 -2 26 -12 0
-380 139 0
-380 107 0
-380 82 0
-380 55 0
-380 74 0
380 -139 -107 -82 -55 -74 0
376 377 378 379 380 0
-381 38 0
-381 1 0
-381 12 0
-381 -47 0
-381 -153 0
381 -38 -1 -12 47 153 0
-382 -95 0
-382 16 0
-382 85 0
-382 -60 0
-382 -1 0
382 95 -16 -85 60 1 0
-383 70 0
-383 164 0
-383 69 0
-383 103 0
-383 7 0
383 -70 -164 -69 -103 -7 0
-384 120 0
-384 14 0
-384 70 0
-384 -20 0
-384 -181 0
384 -120 -14 -70 20 181 0
-385 182 0
-385 -168 0
-385 -176 0
-385 -163 0
-385 -23 0
385 -182 168 176 163 23 0
381 382 383 384 385 0
-386 16 0
-386 87 0
-386 -35 0
-386 65 0
-386 -148 0
386 -16 -87 35 -65 148 0
-387 -169 0
-387 -177 0
-387 -110 0
-387 117 0
-387 -24 0
387 169 177 110 -117 24 0
-388 99 0
-388 -185 0
-388 -23 0
-388 -157 0
-388 -59 0
388 -99 185 23 157 59 0
-389 -154 0
-389 -29 0
-389 88 0
-389 -1 0
-389 81 0
389 154 29 -88 1 -81 0
-390 109 0
-390 40 0
-390 -4 0
-390 -37 0
-390 147 0
390 -109 -40 4 37 -147 0
386 387 388 389 390 0
-391 -147 0
-391 -116 0
-391 -84 0
-391 4 0
-391 -16 0
391 147 116 84 -4 16 0
-392 -122 0
-392 52 0
-392 -59 0
-392 -10 0
-392 -113 0
392 122 -52 59 10 113 0
-393 -178 0
-393 -171 0
-393 83 0
-393 -168 0
-393 22 0
393 178 171 -83 168 -22 0
-394 29 0
-394 102 0
-394 -145 0
-394 -37 0
-394 -54 0
394 -29 -102 145 37 54 0
-395 186 0
-395 90 0
-395 37 0
-395 27 0
-395 140 0
395 -186 -90 -37 -27 -140 0
391 392 393 394 395 0
-396 24 0
-396 -151 0
-396 -28 0
-396 108 0
-396 -130 0
396 -24 151 28 -108 130 0
-397 -8 0
-397 9 0
-397 -153 0
-397 -27 0
-397 147 0
397 8 -9 153 27 -147 0
-398 91 0
-398 50 0
-398 -184 0
-398 -65 0
-398 -13 0
398 -91 -50 184 65 13 0
-399 -14 0
-399 -88 0
-399 63 0
-399 -60 0
-399 -189 0
399 14 88 -63 60 189 0
-400 136 0
-400 -128 0
-400 -3 0
-400 -124 0
-400 -65 0
400 -136 128 3 124 65 0
396 397 398 399 400 0
-401 155 0
-401 -88 0
-401 87 0
-401 -89 0
-401 26 0
401 -155 88 -87 89 -26 0
-402 -133 0
-402 -189 0
-402 -188 0
-402 83 0
-402 -3 0
402 133 189 188 -83 3 0
-403 98 0
-403 -38 0
-403 84 0
-403 -72 0
-403 138 0
403 -98 38 -84 72 -138 0
-404 -47 0
-404 -189 0
-404 180 0
-404 -4 0
-404 19 0
404 47 189 -180 4 -19 0
-405 111 0
-405 21 0
-405 174 0
-405 -41 0
-405 98 0
405 -111 -21 -174 41 -98 0
401 402 403 404 405 0
-406 128 0
-406 37 0
-406 116 0
-406 115 0
-406 -167 0
406 -128 -37 -116 -115 167 0
-407 109 0
-407 8 0
-407 153 0
-407 43 0
-407 -103 0
407 -109 -8 -153 -43 103 0
-408 72 0
-408 36 0
-408 -6 0
-408 19 0
-408 -96 0
408 -72 -36 6 -19 96 0
-409 -155 0
-409 -34 0
-409 -41 0
-409 -45 0
-409 165 0
409 155 34 41 45 -165 0
-410 -76 0
-410 -61 0
-410 -165 0
-410 85 0
-410 168 0
410 76 61 165 -85 -168 0
406 407 408 409 410 0
-411 -67 0
-411 -181 0
-411 154 0
-411 -187 0
-411 -25 0
411 67 181 -154 187 25 0
-412 160 0
-412 38 0
-412 169 0
-412 46 0
-412 141 0
412 -160 -38 -169 -46 -141 0
-413 -133 0
-413 160 0
-413 -25 0
-413 -131 0
-413 111 0
413 133 -160 25 131 -111 0
-414 -143 0
-414 -43 0
-414 39 0
-414 -27 0
-414 113 0
414 143 43 -39 27 -113 0
-415 38 0
-415 -144 0
-415 -10 0
-415 91 0
-415 -7 0
415 -38 144 10 -91 7 0
411 412 413 414 415 0
-416 48 0
-416 -114 0
-416 99 0
-416 169 0
-416 101 0
416 -48 114 -99 -169 -101 0
-417 -144 0
-417 122 0
-417 171 0
-417 112 0
-417 44 0
417 144 -122 -171 -112 -44 0
-418 159 0
-418 138 0
-418 175 0
-418 -171 0
-418 -83 0
418 -159 -138 -175 171 83 0
-419 -119 0
-419 -17 0
-419 125 0
-419 -54 0
-419 -7 0
419 119 17 -125 54 7 0
-420 29 0
-420 -34 0
-420 -129 0
-420 -49 0
-420 -106 0
420 -29 34 129 49 106 0
416 417 418 419 420 0
-421 30 0
-421 107 0
-421 147 0
-421 142 0
-421 173 0
421 -30 -107 -147 -142 -173 0
-422 46 0
-422 -108 0
-422 166 0
-422 88 0
-422 125 0
422 -46 108 -166 -88 -125 0
-423 -112 0
-423 59 0
-423 47 0
-423 29 0
-423 -137 0
423 112 -59 -47 -29 137 0
-424 70 0
-424 79 0
-424 149 0
-424 134 0
-424 36 0
424 -70 -79 -149 -134 -36 0
-425 -168 0
-425 27 0
-425 -91 0
-425 -11 0
-425 -86 0
425 168 -27 91 11 86 0
421 422 423 424 425 0
-426 50 0
-426 34 0
-426 -91 0
-426 -23 0
-426 35 0
426 -50 -34 91 23 -35 0
-427 79 0
-427 31 0
-427 -150 0
-427 -173 0
-427 37 0
427 -79 -31 150 173 -37 0
-428 67 0
-428 102 0
-428 -82 0
-428 48 0
-428 179 0
428 -67 -102 82 -48 -179 0
-429 -120 0
-429 112 0
-429 -189 0
-429 105 0
-429 175 0
429 120 -112 189 -105 -175 0
-430 -73 0
-430 175 0
-430 -37 0
-430 -134 0
-430 -139 0
430 73 -175 37 134 139 0
426 427 428 429 430 0
